50
     7    44    99     4    61    44    64    73    39    79    73    50    66    61    33    95    58    22    94    31    21     4    44    48    52    69    14     2    38    91    73    14    59    63    33    72    82    92    45    26    67     1     2    96    65    27    36    66    15    25
    10     6     8     4     4     3     1     1     2    10     5     6     8     7    10     9     5     4     9     1     5     8     6     2     3     1    10     2     4     7     8    10     1     8     3     5     1    10     8     7    10     1     9     4     3     7     3     3     8     7
   348   323   648   408   487   423   556   448   595   581   556   367   687   492   393   662   453   404   679   612   492   430   364   392   386   604   267   509   407   675   548   514   569   644   352   383   398   562   619   680   403   579   336   543   392   259   319   278   458   570
